p tw 102 153
1 2
1 11
1 5
2 15
2 21
15 26
15 66
26 37
26 16
37 48
37 35
48 59
48 52
59 70
59 91
70 81
70 46
81 92
81 76
92 3
92 55
3 6
3 95
6 7
6 43
7 8
7 79
8 9
8 31
9 10
9 24
10 11
10 63
11 12
12 13
12 85
13 14
13 78
14 16
14 45
16 17
17 18
17 40
18 19
18 50
19 20
19 84
20 21
20 71
21 22
22 23
22 53
23 24
23 94
24 25
25 27
25 83
27 28
27 89
28 29
28 51
29 30
29 38
30 31
30 60
31 32
32 33
32 54
33 34
33 5
34 35
34 77
35 36
36 38
36 100
38 39
39 40
39 80
40 41
41 42
41 68
42 43
42 58
43 44
44 45
44 64
45 46
46 47
47 49
47 87
49 50
49 57
50 51
51 52
52 53
53 54
54 55
55 56
56 57
56 72
57 58
58 60
60 61
61 62
61 102
62 63
62 88
63 64
64 65
65 66
65 93
66 67
67 68
67 101
68 69
69 71
69 96
71 72
72 73
73 74
73 4
74 75
74 86
75 76
75 98
76 77
77 78
78 79
79 80
80 82
82 83
82 97
83 84
84 85
85 86
86 87
87 88
88 89
89 90
90 91
90 99
91 93
93 94
94 95
95 96
96 97
97 98
98 99
99 100
100 101
101 102
102 4
4 5
